p cnf 512 1226
a 305 308 312 315 320 323 327 330 336 339 343 457 349 352 356 359 366 369 373 376 381 384 388 486 396 399 403 406 411 414 502 419 7 13 24 30 2 1 40 18 6 12 35 23 29 50 45 60 55 70 65 80 75 85 90 95 105 100 110 115 120 130 125 135 140 145 150 181 162 154 158 175 167 171 191 186 201 196 210 206 220 215 225 230 235 245 240 250 255 260 264 272 268 277 282 287 292 297 301 0
d 346 457 260 264 2 0
d 418 2 502 297 301 13 0
d 391 2 486 0
d 3 2 0
d 4 1 2 0
d 5 1 2 0
d 8 7 0
d 9 6 7 0
d 10 6 7 0
d 11 1 2 6 7 0
d 14 13 0
d 15 12 13 0
d 16 12 13 0
d 17 1 2 6 7 12 13 0
d 19 6 12 0
d 20 18 6 12 0
d 21 18 6 12 0
d 22 1 2 6 7 12 13 18 0
d 25 24 0
d 26 23 24 0
d 27 23 24 0
d 28 1 2 6 7 12 13 18 23 24 0
d 31 30 0
d 32 29 30 0
d 33 29 30 0
d 34 1 2 6 7 12 13 18 23 24 29 30 0
d 36 23 29 0
d 37 35 23 29 0
d 38 35 23 29 0
d 39 1 2 6 7 12 13 18 23 24 29 30 35 0
d 41 18 35 0
d 42 40 18 35 0
d 43 40 18 35 0
d 44 1 2 6 7 12 13 18 23 24 29 30 35 40 0
d 46 7 12 0
d 47 45 7 12 0
d 48 45 7 12 0
d 49 1 2 6 7 12 13 18 23 24 29 30 35 40 45 0
d 51 45 35 0
d 52 50 45 35 0
d 53 50 45 35 0
d 54 1 2 6 7 12 13 18 23 24 29 30 35 40 45 50 0
d 56 6 13 0
d 57 55 6 13 0
d 58 55 6 13 0
d 59 1 2 6 7 12 13 18 23 24 29 30 35 40 45 50 55 0
d 61 55 35 0
d 62 60 55 35 0
d 63 60 55 35 0
d 64 1 2 6 7 12 13 18 23 24 29 30 35 40 45 50 55 60 0
d 66 7 13 0
d 67 65 7 13 0
d 68 65 7 13 0
d 69 1 2 6 7 12 13 18 23 24 29 30 35 40 45 50 55 60 65 0
d 71 65 35 0
d 72 70 65 35 0
d 73 70 65 35 0
d 74 1 2 6 7 12 13 18 23 24 29 30 35 40 45 50 55 60 65 70 0
d 76 24 29 0
d 77 75 24 29 0
d 78 75 24 29 0
d 79 1 2 6 7 12 13 18 23 24 29 30 35 40 45 50 55 60 65 70 75 0
d 81 18 75 0
d 82 80 18 75 0
d 83 80 18 75 0
d 84 1 2 6 7 12 13 18 23 24 29 30 35 40 45 50 55 60 65 70 75 80 0
d 86 45 75 0
d 87 85 45 75 0
d 88 85 45 75 0
d 89 1 2 6 7 12 13 18 23 24 29 30 35 40 45 50 55 60 65 70 75 80 85 0
d 91 55 75 0
d 92 90 55 75 0
d 93 90 55 75 0
d 94 1 2 6 7 12 13 18 23 24 29 30 35 40 45 50 55 60 65 70 75 80 85 90 0
d 96 65 75 0
d 97 95 65 75 0
d 98 95 65 75 0
d 99 1 2 6 7 12 13 18 23 24 29 30 35 40 45 50 55 60 65 70 75 80 85 90 95 0
d 101 23 30 0
d 102 100 23 30 0
d 103 100 23 30 0
d 104 1 2 6 7 12 13 18 23 24 29 30 35 40 45 50 55 60 65 70 75 80 85 90 95 100 0
d 106 18 100 0
d 107 105 18 100 0
d 108 105 18 100 0
d 109 1 2 6 7 12 13 18 23 24 29 30 35 40 45 50 55 60 65 70 75 80 85 90 95 100 105 0
d 111 45 100 0
d 112 110 45 100 0
d 113 110 45 100 0
d 114 1 2 6 7 12 13 18 23 24 29 30 35 40 45 50 55 60 65 70 75 80 85 90 95 100 105 110 0
d 116 55 100 0
d 117 115 55 100 0
d 118 115 55 100 0
d 119 1 2 6 7 12 13 18 23 24 29 30 35 40 45 50 55 60 65 70 75 80 85 90 95 100 105 110 115 0
d 121 65 100 0
d 122 120 65 100 0
d 123 120 65 100 0
d 124 1 2 6 7 12 13 18 23 24 29 30 35 40 45 50 55 60 65 70 75 80 85 90 95 100 105 110 115 120 0
d 126 24 30 0
d 127 125 24 30 0
d 128 125 24 30 0
d 129 1 2 6 7 12 13 18 23 24 29 30 35 40 45 50 55 60 65 70 75 80 85 90 95 100 105 110 115 120 125 0
d 131 18 125 0
d 132 130 18 125 0
d 133 130 18 125 0
d 134 1 2 6 7 12 13 18 23 24 29 30 35 40 45 50 55 60 65 70 75 80 85 90 95 100 105 110 115 120 125 130 0
d 136 45 125 0
d 137 135 45 125 0
d 138 135 45 125 0
d 139 1 2 6 7 12 13 18 23 24 29 30 35 40 45 50 55 60 65 70 75 80 85 90 95 100 105 110 115 120 125 130 135 0
d 141 55 125 0
d 142 140 55 125 0
d 143 140 55 125 0
d 144 1 2 6 7 12 13 18 23 24 29 30 35 40 45 50 55 60 65 70 75 80 85 90 95 100 105 110 115 120 125 130 135 140 0
d 146 65 125 0
d 147 145 65 125 0
d 148 145 65 125 0
d 149 1 2 6 7 12 13 18 23 24 29 30 35 40 45 50 55 60 65 70 75 80 85 90 95 100 105 110 115 120 125 130 135 140 145 0
d 151 150 2 0
d 152 150 2 0
d 153 1 2 6 7 12 13 18 23 24 29 30 35 40 45 50 55 60 65 70 75 80 85 90 95 100 105 110 115 120 125 130 135 140 145 150 0
d 155 154 7 0
d 156 154 7 0
d 157 1 2 6 7 12 13 18 23 24 29 30 35 40 45 50 55 60 65 70 75 80 85 90 95 100 105 110 115 120 125 130 135 140 145 150 154 0
d 159 158 13 0
d 160 158 13 0
d 161 1 2 6 7 12 13 18 23 24 29 30 35 40 45 50 55 60 65 70 75 80 85 90 95 100 105 110 115 120 125 130 135 140 145 150 154 158 0
d 163 154 158 0
d 164 162 154 158 0
d 165 162 154 158 0
d 166 1 2 6 7 12 13 18 23 24 29 30 35 40 45 50 55 60 65 70 75 80 85 90 95 100 105 110 115 120 125 130 135 140 145 150 154 158 162 0
d 168 167 24 0
d 169 167 24 0
d 170 1 2 6 7 12 13 18 23 24 29 30 35 40 45 50 55 60 65 70 75 80 85 90 95 100 105 110 115 120 125 130 135 140 145 150 154 158 162 167 0
d 172 171 30 0
d 173 171 30 0
d 174 1 2 6 7 12 13 18 23 24 29 30 35 40 45 50 55 60 65 70 75 80 85 90 95 100 105 110 115 120 125 130 135 140 145 150 154 158 162 167 171 0
d 176 167 171 0
d 177 167 171 0
d 178 175 167 171 0
d 179 175 167 171 0
d 180 1 2 6 7 12 13 18 23 24 29 30 35 40 45 50 55 60 65 70 75 80 85 90 95 100 105 110 115 120 125 130 135 140 145 150 154 158 162 167 171 175 0
d 182 162 175 0
d 183 181 162 175 0
d 184 181 162 175 0
d 185 1 2 6 7 12 13 18 23 24 29 30 35 40 45 50 55 60 65 70 75 80 85 90 95 100 105 110 115 120 125 130 135 140 145 150 154 158 162 167 171 175 181 0
d 187 7 158 0
d 188 186 7 158 0
d 189 186 7 158 0
d 190 1 2 6 7 12 13 18 23 24 29 30 35 40 45 50 55 60 65 70 75 80 85 90 95 100 105 110 115 120 125 130 135 140 145 150 154 158 162 167 171 175 181 186 0
d 192 186 175 0
d 193 191 186 175 0
d 194 191 186 175 0
d 195 1 2 6 7 12 13 18 23 24 29 30 35 40 45 50 55 60 65 70 75 80 85 90 95 100 105 110 115 120 125 130 135 140 145 150 154 158 162 167 171 175 181 186 191 0
d 197 154 13 0
d 198 196 154 13 0
d 199 196 154 13 0
d 200 1 2 6 7 12 13 18 23 24 29 30 35 40 45 50 55 60 65 70 75 80 85 90 95 100 105 110 115 120 125 130 135 140 145 150 154 158 162 167 171 175 181 186 191 196 0
d 202 196 175 0
d 203 201 196 175 0
d 204 201 196 175 0
d 205 1 2 6 7 12 13 18 23 24 29 30 35 40 45 50 55 60 65 70 75 80 85 90 95 100 105 110 115 120 125 130 135 140 145 150 154 158 162 167 171 175 181 186 191 196 201 0
d 207 206 7 13 0
d 208 206 7 13 0
d 209 1 2 6 7 12 13 18 23 24 29 30 35 40 45 50 55 60 65 70 75 80 85 90 95 100 105 110 115 120 125 130 135 140 145 150 154 158 162 167 171 175 181 186 191 196 201 206 0
d 211 206 175 0
d 212 210 206 175 0
d 213 210 206 175 0
d 214 1 2 6 7 12 13 18 23 24 29 30 35 40 45 50 55 60 65 70 75 80 85 90 95 100 105 110 115 120 125 130 135 140 145 150 154 158 162 167 171 175 181 186 191 196 201 206 210 0
d 216 24 171 0
d 217 215 24 171 0
d 218 215 24 171 0
d 219 1 2 6 7 12 13 18 23 24 29 30 35 40 45 50 55 60 65 70 75 80 85 90 95 100 105 110 115 120 125 130 135 140 145 150 154 158 162 167 171 175 181 186 191 196 201 206 210 215 0
d 221 162 215 0
d 222 220 162 215 0
d 223 220 162 215 0
d 224 1 2 6 7 12 13 18 23 24 29 30 35 40 45 50 55 60 65 70 75 80 85 90 95 100 105 110 115 120 125 130 135 140 145 150 154 158 162 167 171 175 181 186 191 196 201 206 210 215 220 0
d 226 186 215 0
d 227 225 186 215 0
d 228 225 186 215 0
d 229 1 2 6 7 12 13 18 23 24 29 30 35 40 45 50 55 60 65 70 75 80 85 90 95 100 105 110 115 120 125 130 135 140 145 150 154 158 162 167 171 175 181 186 191 196 201 206 210 215 220 225 0
d 231 196 215 0
d 232 230 196 215 0
d 233 230 196 215 0
d 234 1 2 6 7 12 13 18 23 24 29 30 35 40 45 50 55 60 65 70 75 80 85 90 95 100 105 110 115 120 125 130 135 140 145 150 154 158 162 167 171 175 181 186 191 196 201 206 210 215 220 225 230 0
d 236 206 215 0
d 237 235 206 215 0
d 238 235 206 215 0
d 239 1 2 6 7 12 13 18 23 24 29 30 35 40 45 50 55 60 65 70 75 80 85 90 95 100 105 110 115 120 125 130 135 140 145 150 154 158 162 167 171 175 181 186 191 196 201 206 210 215 220 225 230 235 0
d 241 167 30 0
d 242 240 167 30 0
d 243 240 167 30 0
d 244 1 2 6 7 12 13 18 23 24 29 30 35 40 45 50 55 60 65 70 75 80 85 90 95 100 105 110 115 120 125 130 135 140 145 150 154 158 162 167 171 175 181 186 191 196 201 206 210 215 220 225 230 235 240 0
d 246 162 240 0
d 247 245 162 240 0
d 248 245 162 240 0
d 249 1 2 6 7 12 13 18 23 24 29 30 35 40 45 50 55 60 65 70 75 80 85 90 95 100 105 110 115 120 125 130 135 140 145 150 154 158 162 167 171 175 181 186 191 196 201 206 210 215 220 225 230 235 240 245 0
d 251 186 240 0
d 252 250 186 240 0
d 253 250 186 240 0
d 254 1 2 6 7 12 13 18 23 24 29 30 35 40 45 50 55 60 65 70 75 80 85 90 95 100 105 110 115 120 125 130 135 140 145 150 154 158 162 167 171 175 181 186 191 196 201 206 210 215 220 225 230 235 240 245 250 0
d 256 196 240 0
d 257 255 196 240 0
d 258 255 196 240 0
d 259 1 2 6 7 12 13 18 23 24 29 30 35 40 45 50 55 60 65 70 75 80 85 90 95 100 105 110 115 120 125 130 135 140 145 150 154 158 162 167 171 175 181 186 191 196 201 206 210 215 220 225 230 235 240 245 250 255 0
d 261 260 206 0
d 262 260 206 0
d 263 1 2 6 7 12 13 18 23 24 29 30 35 40 45 50 55 60 65 70 75 80 85 90 95 100 105 110 115 120 125 130 135 140 145 150 154 158 162 167 171 175 181 186 191 196 201 206 210 215 220 225 230 235 240 245 250 255 260 0
d 265 264 240 0
d 266 264 240 0
d 267 1 2 6 7 12 13 18 23 24 29 30 35 40 45 50 55 60 65 70 75 80 85 90 95 100 105 110 115 120 125 130 135 140 145 150 154 158 162 167 171 175 181 186 191 196 201 206 210 215 220 225 230 235 240 245 250 255 260 264 0
d 269 268 24 30 0
d 270 268 24 30 0
d 271 1 2 6 7 12 13 18 23 24 29 30 35 40 45 50 55 60 65 70 75 80 85 90 95 100 105 110 115 120 125 130 135 140 145 150 154 158 162 167 171 175 181 186 191 196 201 206 210 215 220 225 230 235 240 245 250 255 260 264 268 0
d 273 162 268 0
d 274 272 162 268 0
d 275 272 162 268 0
d 276 1 2 6 7 12 13 18 23 24 29 30 35 40 45 50 55 60 65 70 75 80 85 90 95 100 105 110 115 120 125 130 135 140 145 150 154 158 162 167 171 175 181 186 191 196 201 206 210 215 220 225 230 235 240 245 250 255 260 264 268 272 0
d 278 186 268 0
d 279 277 186 268 0
d 280 277 186 268 0
d 281 1 2 6 7 12 13 18 23 24 29 30 35 40 45 50 55 60 65 70 75 80 85 90 95 100 105 110 115 120 125 130 135 140 145 150 154 158 162 167 171 175 181 186 191 196 201 206 210 215 220 225 230 235 240 245 250 255 260 264 268 272 277 0
d 283 196 268 0
d 284 282 196 268 0
d 285 282 196 268 0
d 286 1 2 6 7 12 13 18 23 24 29 30 35 40 45 50 55 60 65 70 75 80 85 90 95 100 105 110 115 120 125 130 135 140 145 150 154 158 162 167 171 175 181 186 191 196 201 206 210 215 220 225 230 235 240 245 250 255 260 264 268 272 277 282 0
d 288 206 268 0
d 289 287 206 268 0
d 290 287 206 268 0
d 291 1 2 6 7 12 13 18 23 24 29 30 35 40 45 50 55 60 65 70 75 80 85 90 95 100 105 110 115 120 125 130 135 140 145 150 154 158 162 167 171 175 181 186 191 196 201 206 210 215 220 225 230 235 240 245 250 255 260 264 268 272 277 282 287 0
d 293 206 240 0
d 294 292 206 240 0
d 295 292 206 240 0
d 296 1 2 6 7 12 13 18 23 24 29 30 35 40 45 50 55 60 65 70 75 80 85 90 95 100 105 110 115 120 125 130 135 140 145 150 154 158 162 167 171 175 181 186 191 196 201 206 210 215 220 225 230 235 240 245 250 255 260 264 268 272 277 282 287 292 0
d 298 297 268 0
d 299 297 268 0
d 300 1 2 6 7 12 13 18 23 24 29 30 35 40 45 50 55 60 65 70 75 80 85 90 95 100 105 110 115 120 125 130 135 140 145 150 154 158 162 167 171 175 181 186 191 196 201 206 210 215 220 225 230 235 240 245 250 255 260 264 268 272 277 282 287 292 297 0
d 302 301 154 0
d 303 301 154 0
d 304 1 2 6 7 12 13 18 23 24 29 30 35 40 45 50 55 60 65 70 75 80 85 90 95 100 105 110 115 120 125 130 135 140 145 150 154 158 162 167 171 175 181 186 191 196 201 206 210 215 220 225 230 235 240 245 250 255 260 264 268 272 277 282 287 292 297 301 0
d 306 150 305 0
d 307 150 305 181 0
d 309 150 308 0
d 310 150 308 191 0
d 311 150 305 181 308 191 0
d 313 150 312 0
d 314 150 312 201 0
d 316 150 315 0
d 317 150 315 210 0
d 318 150 312 201 315 210 0
d 319 150 305 181 308 191 312 201 315 210 0
d 321 150 320 0
d 322 150 320 220 0
d 324 150 323 0
d 325 150 323 225 0
d 326 150 320 220 323 225 0
d 328 150 327 0
d 329 150 327 230 0
d 331 150 330 0
d 332 150 330 235 0
d 333 150 327 230 330 235 0
d 334 150 320 220 323 225 327 230 330 235 0
d 335 150 305 181 308 191 312 201 315 210 320 220 323 225 327 230 330 235 0
d 337 150 336 0
d 338 150 336 245 0
d 340 150 339 0
d 341 150 339 250 0
d 342 150 336 245 339 250 0
d 344 150 343 0
d 345 150 343 255 0
d 347 150 343 255 457 260 264 2 0
d 348 150 336 245 339 250 343 255 457 260 264 2 0
d 350 150 349 0
d 351 150 349 272 0
d 353 150 352 0
d 354 150 352 277 0
d 355 150 349 272 352 277 0
d 357 150 356 0
d 358 150 356 282 0
d 360 150 359 0
d 361 150 359 287 0
d 362 150 356 282 359 287 0
d 363 150 349 272 352 277 356 282 359 287 0
d 364 150 336 245 339 250 343 255 457 260 264 2 349 272 352 277 356 282 359 287 0
d 365 150 305 181 308 191 312 201 315 210 320 220 323 225 327 230 330 235 336 245 339 250 343 255 457 260 264 2 349 272 352 277 356 282 359 287 0
d 367 2 366 0
d 368 2 366 181 0
d 370 2 369 0
d 371 2 369 191 0
d 372 2 366 181 369 191 0
d 374 2 373 0
d 375 2 373 201 0
d 377 2 376 0
d 378 2 376 210 0
d 379 2 373 201 376 210 0
d 380 2 366 181 369 191 373 201 376 210 0
d 382 2 381 0
d 383 2 381 220 0
d 385 2 384 0
d 386 2 384 225 0
d 387 2 381 220 384 225 0
d 389 2 388 0
d 390 2 388 230 0
d 392 2 486 235 0
d 393 2 388 230 486 235 0
d 394 2 381 220 384 225 388 230 486 235 0
d 395 2 366 181 369 191 373 201 376 210 381 220 384 225 388 230 486 235 0
d 397 2 396 0
d 398 2 396 245 0
d 400 2 399 0
d 401 2 399 250 0
d 402 2 396 245 399 250 0
d 404 2 403 0
d 405 2 403 255 0
d 407 2 406 0
d 408 2 406 292 0
d 409 2 403 255 406 292 0
d 410 2 396 245 399 250 403 255 406 292 0
d 412 2 411 0
d 413 2 411 272 0
d 415 2 414 0
d 416 2 414 277 0
d 417 2 411 272 414 277 0
d 420 2 419 0
d 421 2 419 287 0
d 422 2 502 297 301 13 419 287 0
d 423 2 411 272 414 277 502 297 301 13 419 287 0
d 424 2 396 245 399 250 403 255 406 292 411 272 414 277 502 297 301 13 419 287 0
d 425 2 366 181 369 191 373 201 376 210 381 220 384 225 388 230 486 235 396 245 399 250 403 255 406 292 411 272 414 277 502 297 301 13 419 287 0
d 426 150 305 181 308 191 312 201 315 210 320 220 323 225 327 230 330 235 336 245 339 250 343 255 457 260 264 2 349 272 352 277 356 282 359 287 366 369 373 376 381 384 388 486 396 399 403 406 292 411 414 502 297 301 13 419 0
d 427 1 305 0
d 428 1 305 40 0
d 429 1 308 0
d 430 1 308 50 0
d 431 1 305 40 308 50 0
d 432 1 312 0
d 433 1 312 60 0
d 434 1 315 0
d 435 1 315 70 0
d 436 1 312 60 315 70 0
d 437 1 305 40 308 50 312 60 315 70 0
d 438 1 320 0
d 439 1 320 80 0
d 440 1 323 0
d 441 1 323 85 0
d 442 1 320 80 323 85 0
d 443 1 327 0
d 444 1 327 90 0
d 445 1 330 0
d 446 1 330 95 0
d 447 1 327 90 330 95 0
d 448 1 320 80 323 85 327 90 330 95 0
d 449 1 305 40 308 50 312 60 315 70 320 80 323 85 327 90 330 95 0
d 450 1 336 0
d 451 1 336 105 0
d 452 1 339 0
d 453 1 339 110 0
d 454 1 336 105 339 110 0
d 455 1 343 0
d 456 1 343 115 0
d 458 1 457 0
d 459 1 457 120 0
d 460 1 343 115 457 120 0
d 461 1 336 105 339 110 343 115 457 120 0
d 462 1 349 0
d 463 1 349 130 0
d 464 1 352 0
d 465 1 352 135 0
d 466 1 349 130 352 135 0
d 467 1 356 0
d 468 1 356 140 0
d 469 1 359 0
d 470 1 359 145 0
d 471 1 356 140 359 145 0
d 472 1 349 130 352 135 356 140 359 145 0
d 473 1 336 105 339 110 343 115 457 120 349 130 352 135 356 140 359 145 0
d 474 1 305 40 308 50 312 60 315 70 320 80 323 85 327 90 330 95 336 105 339 110 343 115 457 120 349 130 352 135 356 140 359 145 0
d 475 2 366 40 0
d 476 2 369 50 0
d 477 2 366 40 369 50 0
d 478 2 373 60 0
d 479 2 376 70 0
d 480 2 373 60 376 70 0
d 481 2 366 40 369 50 373 60 376 70 0
d 482 2 381 80 0
d 483 2 384 85 0
d 484 2 381 80 384 85 0
d 485 2 388 90 0
d 487 2 486 0
d 488 2 486 95 0
d 489 2 388 90 486 95 0
d 490 2 381 80 384 85 388 90 486 95 0
d 491 2 366 40 369 50 373 60 376 70 381 80 384 85 388 90 486 95 0
d 492 2 396 105 0
d 493 2 399 110 0
d 494 2 396 105 399 110 0
d 495 2 403 115 0
d 496 2 406 120 0
d 497 2 403 115 406 120 0
d 498 2 396 105 399 110 403 115 406 120 0
d 499 2 411 130 0
d 500 2 414 135 0
d 501 2 411 130 414 135 0
d 503 2 502 0
d 504 2 502 140 0
d 505 2 419 145 0
d 506 2 502 140 419 145 0
d 507 2 411 130 414 135 502 140 419 145 0
d 508 2 396 105 399 110 403 115 406 120 411 130 414 135 502 140 419 145 0
d 509 2 366 40 369 50 373 60 376 70 381 80 384 85 388 90 486 95 396 105 399 110 403 115 406 120 411 130 414 135 502 140 419 145 0
d 510 1 305 40 308 50 312 60 315 70 320 80 323 85 327 90 330 95 336 105 339 110 343 115 457 120 349 130 352 135 356 140 359 145 2 366 369 373 376 381 384 388 486 396 399 403 406 411 414 502 419 0
d 511 150 305 181 308 191 312 201 315 210 320 220 323 225 327 230 330 235 336 245 339 250 343 255 457 260 264 2 349 272 352 277 356 282 359 287 366 369 373 376 381 384 388 486 396 399 403 406 292 411 414 502 297 301 13 419 1 40 50 60 70 80 85 90 95 105 110 115 120 130 135 140 145 0
d 512 1 2 6 7 12 13 18 23 24 29 30 35 40 45 50 55 60 65 70 75 80 85 90 95 100 105 110 115 120 125 130 135 140 145 150 154 158 162 167 171 175 181 186 191 196 201 206 210 215 220 225 230 235 240 245 250 255 260 264 268 272 277 282 287 292 297 301 305 308 312 315 320 323 327 330 336 339 343 457 349 352 356 359 366 369 373 376 381 384 388 486 396 399 403 406 411 414 502 419 0
3 2 0
-3 -2 0
4 -1 -3 0
4 1 3 0
-4 -1 3 0
-4 1 -3 0
5 4 0
-5 -4 0
8 7 0
-8 -7 0
9 -6 -8 0
9 6 8 0
-9 -6 8 0
-9 6 -8 0
10 9 0
-10 -9 0
11 -5 0
11 -10 0
-11 5 10 0
14 13 0
-14 -13 0
15 -12 -14 0
15 12 14 0
-15 -12 14 0
-15 12 -14 0
16 15 0
-16 -15 0
17 -11 0
17 -16 0
-17 11 16 0
-19 6 0
-19 12 0
19 -6 -12 0
20 -18 -19 0
20 18 19 0
-20 -18 19 0
-20 18 -19 0
21 20 0
-21 -20 0
22 -17 0
22 -21 0
-22 17 21 0
25 24 0
-25 -24 0
26 -23 -25 0
26 23 25 0
-26 -23 25 0
-26 23 -25 0
27 26 0
-27 -26 0
28 -22 0
28 -27 0
-28 22 27 0
31 30 0
-31 -30 0
32 -29 -31 0
32 29 31 0
-32 -29 31 0
-32 29 -31 0
33 32 0
-33 -32 0
34 -28 0
34 -33 0
-34 28 33 0
-36 23 0
-36 29 0
36 -23 -29 0
37 -35 -36 0
37 35 36 0
-37 -35 36 0
-37 35 -36 0
38 37 0
-38 -37 0
39 -34 0
39 -38 0
-39 34 38 0
-41 18 0
-41 35 0
41 -18 -35 0
42 -40 -41 0
42 40 41 0
-42 -40 41 0
-42 40 -41 0
43 42 0
-43 -42 0
44 -39 0
44 -43 0
-44 39 43 0
-46 7 0
-46 12 0
46 -7 -12 0
47 -45 -46 0
47 45 46 0
-47 -45 46 0
-47 45 -46 0
48 47 0
-48 -47 0
49 -44 0
49 -48 0
-49 44 48 0
-51 45 0
-51 35 0
51 -45 -35 0
52 -50 -51 0
52 50 51 0
-52 -50 51 0
-52 50 -51 0
53 52 0
-53 -52 0
54 -49 0
54 -53 0
-54 49 53 0
-56 6 0
-56 13 0
56 -6 -13 0
57 -55 -56 0
57 55 56 0
-57 -55 56 0
-57 55 -56 0
58 57 0
-58 -57 0
59 -54 0
59 -58 0
-59 54 58 0
-61 55 0
-61 35 0
61 -55 -35 0
62 -60 -61 0
62 60 61 0
-62 -60 61 0
-62 60 -61 0
63 62 0
-63 -62 0
64 -59 0
64 -63 0
-64 59 63 0
-66 7 0
-66 13 0
66 -7 -13 0
67 -65 -66 0
67 65 66 0
-67 -65 66 0
-67 65 -66 0
68 67 0
-68 -67 0
69 -64 0
69 -68 0
-69 64 68 0
-71 65 0
-71 35 0
71 -65 -35 0
72 -70 -71 0
72 70 71 0
-72 -70 71 0
-72 70 -71 0
73 72 0
-73 -72 0
74 -69 0
74 -73 0
-74 69 73 0
-76 24 0
-76 29 0
76 -24 -29 0
77 -75 -76 0
77 75 76 0
-77 -75 76 0
-77 75 -76 0
78 77 0
-78 -77 0
79 -74 0
79 -78 0
-79 74 78 0
-81 18 0
-81 75 0
81 -18 -75 0
82 -80 -81 0
82 80 81 0
-82 -80 81 0
-82 80 -81 0
83 82 0
-83 -82 0
84 -79 0
84 -83 0
-84 79 83 0
-86 45 0
-86 75 0
86 -45 -75 0
87 -85 -86 0
87 85 86 0
-87 -85 86 0
-87 85 -86 0
88 87 0
-88 -87 0
89 -84 0
89 -88 0
-89 84 88 0
-91 55 0
-91 75 0
91 -55 -75 0
92 -90 -91 0
92 90 91 0
-92 -90 91 0
-92 90 -91 0
93 92 0
-93 -92 0
94 -89 0
94 -93 0
-94 89 93 0
-96 65 0
-96 75 0
96 -65 -75 0
97 -95 -96 0
97 95 96 0
-97 -95 96 0
-97 95 -96 0
98 97 0
-98 -97 0
99 -94 0
99 -98 0
-99 94 98 0
-101 23 0
-101 30 0
101 -23 -30 0
102 -100 -101 0
102 100 101 0
-102 -100 101 0
-102 100 -101 0
103 102 0
-103 -102 0
104 -99 0
104 -103 0
-104 99 103 0
-106 18 0
-106 100 0
106 -18 -100 0
107 -105 -106 0
107 105 106 0
-107 -105 106 0
-107 105 -106 0
108 107 0
-108 -107 0
109 -104 0
109 -108 0
-109 104 108 0
-111 45 0
-111 100 0
111 -45 -100 0
112 -110 -111 0
112 110 111 0
-112 -110 111 0
-112 110 -111 0
113 112 0
-113 -112 0
114 -109 0
114 -113 0
-114 109 113 0
-116 55 0
-116 100 0
116 -55 -100 0
117 -115 -116 0
117 115 116 0
-117 -115 116 0
-117 115 -116 0
118 117 0
-118 -117 0
119 -114 0
119 -118 0
-119 114 118 0
-121 65 0
-121 100 0
121 -65 -100 0
122 -120 -121 0
122 120 121 0
-122 -120 121 0
-122 120 -121 0
123 122 0
-123 -122 0
124 -119 0
124 -123 0
-124 119 123 0
-126 24 0
-126 30 0
126 -24 -30 0
127 -125 -126 0
127 125 126 0
-127 -125 126 0
-127 125 -126 0
128 127 0
-128 -127 0
129 -124 0
129 -128 0
-129 124 128 0
-131 18 0
-131 125 0
131 -18 -125 0
132 -130 -131 0
132 130 131 0
-132 -130 131 0
-132 130 -131 0
133 132 0
-133 -132 0
134 -129 0
134 -133 0
-134 129 133 0
-136 45 0
-136 125 0
136 -45 -125 0
137 -135 -136 0
137 135 136 0
-137 -135 136 0
-137 135 -136 0
138 137 0
-138 -137 0
139 -134 0
139 -138 0
-139 134 138 0
-141 55 0
-141 125 0
141 -55 -125 0
142 -140 -141 0
142 140 141 0
-142 -140 141 0
-142 140 -141 0
143 142 0
-143 -142 0
144 -139 0
144 -143 0
-144 139 143 0
-146 65 0
-146 125 0
146 -65 -125 0
147 -145 -146 0
147 145 146 0
-147 -145 146 0
-147 145 -146 0
148 147 0
-148 -147 0
149 -144 0
149 -148 0
-149 144 148 0
151 -150 -3 0
151 150 3 0
-151 -150 3 0
-151 150 -3 0
152 151 0
-152 -151 0
153 -149 0
153 -152 0
-153 149 152 0
155 -154 -8 0
155 154 8 0
-155 -154 8 0
-155 154 -8 0
156 155 0
-156 -155 0
157 -153 0
157 -156 0
-157 153 156 0
159 -158 -14 0
159 158 14 0
-159 -158 14 0
-159 158 -14 0
160 159 0
-160 -159 0
161 -157 0
161 -160 0
-161 157 160 0
-163 154 0
-163 158 0
163 -154 -158 0
164 -162 -163 0
164 162 163 0
-164 -162 163 0
-164 162 -163 0
165 164 0
-165 -164 0
166 -161 0
166 -165 0
-166 161 165 0
168 -167 -25 0
168 167 25 0
-168 -167 25 0
-168 167 -25 0
169 168 0
-169 -168 0
170 -166 0
170 -169 0
-170 166 169 0
172 -171 -31 0
172 171 31 0
-172 -171 31 0
-172 171 -31 0
173 172 0
-173 -172 0
174 -170 0
174 -173 0
-174 170 173 0
-176 167 0
-176 171 0
176 -167 -171 0
177 176 0
-177 -176 0
178 -175 -177 0
178 175 177 0
-178 -175 177 0
-178 175 -177 0
179 178 0
-179 -178 0
180 -174 0
180 -179 0
-180 174 179 0
-182 162 0
-182 175 0
182 -162 -175 0
183 -181 -182 0
183 181 182 0
-183 -181 182 0
-183 181 -182 0
184 183 0
-184 -183 0
185 -180 0
185 -184 0
-185 180 184 0
-187 7 0
-187 158 0
187 -7 -158 0
188 -186 -187 0
188 186 187 0
-188 -186 187 0
-188 186 -187 0
189 188 0
-189 -188 0
190 -185 0
190 -189 0
-190 185 189 0
-192 186 0
-192 175 0
192 -186 -175 0
193 -191 -192 0
193 191 192 0
-193 -191 192 0
-193 191 -192 0
194 193 0
-194 -193 0
195 -190 0
195 -194 0
-195 190 194 0
-197 154 0
-197 13 0
197 -154 -13 0
198 -196 -197 0
198 196 197 0
-198 -196 197 0
-198 196 -197 0
199 198 0
-199 -198 0
200 -195 0
200 -199 0
-200 195 199 0
-202 196 0
-202 175 0
202 -196 -175 0
203 -201 -202 0
203 201 202 0
-203 -201 202 0
-203 201 -202 0
204 203 0
-204 -203 0
205 -200 0
205 -204 0
-205 200 204 0
207 -206 -66 0
207 206 66 0
-207 -206 66 0
-207 206 -66 0
208 207 0
-208 -207 0
209 -205 0
209 -208 0
-209 205 208 0
-211 206 0
-211 175 0
211 -206 -175 0
212 -210 -211 0
212 210 211 0
-212 -210 211 0
-212 210 -211 0
213 212 0
-213 -212 0
214 -209 0
214 -213 0
-214 209 213 0
-216 24 0
-216 171 0
216 -24 -171 0
217 -215 -216 0
217 215 216 0
-217 -215 216 0
-217 215 -216 0
218 217 0
-218 -217 0
219 -214 0
219 -218 0
-219 214 218 0
-221 162 0
-221 215 0
221 -162 -215 0
222 -220 -221 0
222 220 221 0
-222 -220 221 0
-222 220 -221 0
223 222 0
-223 -222 0
224 -219 0
224 -223 0
-224 219 223 0
-226 186 0
-226 215 0
226 -186 -215 0
227 -225 -226 0
227 225 226 0
-227 -225 226 0
-227 225 -226 0
228 227 0
-228 -227 0
229 -224 0
229 -228 0
-229 224 228 0
-231 196 0
-231 215 0
231 -196 -215 0
232 -230 -231 0
232 230 231 0
-232 -230 231 0
-232 230 -231 0
233 232 0
-233 -232 0
234 -229 0
234 -233 0
-234 229 233 0
-236 206 0
-236 215 0
236 -206 -215 0
237 -235 -236 0
237 235 236 0
-237 -235 236 0
-237 235 -236 0
238 237 0
-238 -237 0
239 -234 0
239 -238 0
-239 234 238 0
-241 167 0
-241 30 0
241 -167 -30 0
242 -240 -241 0
242 240 241 0
-242 -240 241 0
-242 240 -241 0
243 242 0
-243 -242 0
244 -239 0
244 -243 0
-244 239 243 0
-246 162 0
-246 240 0
246 -162 -240 0
247 -245 -246 0
247 245 246 0
-247 -245 246 0
-247 245 -246 0
248 247 0
-248 -247 0
249 -244 0
249 -248 0
-249 244 248 0
-251 186 0
-251 240 0
251 -186 -240 0
252 -250 -251 0
252 250 251 0
-252 -250 251 0
-252 250 -251 0
253 252 0
-253 -252 0
254 -249 0
254 -253 0
-254 249 253 0
-256 196 0
-256 240 0
256 -196 -240 0
257 -255 -256 0
257 255 256 0
-257 -255 256 0
-257 255 -256 0
258 257 0
-258 -257 0
259 -254 0
259 -258 0
-259 254 258 0
261 -260 -206 0
261 260 206 0
-261 -260 206 0
-261 260 -206 0
262 261 0
-262 -261 0
263 -259 0
263 -262 0
-263 259 262 0
265 -264 -240 0
265 264 240 0
-265 -264 240 0
-265 264 -240 0
266 265 0
-266 -265 0
267 -263 0
267 -266 0
-267 263 266 0
269 -268 -126 0
269 268 126 0
-269 -268 126 0
-269 268 -126 0
270 269 0
-270 -269 0
271 -267 0
271 -270 0
-271 267 270 0
-273 162 0
-273 268 0
273 -162 -268 0
274 -272 -273 0
274 272 273 0
-274 -272 273 0
-274 272 -273 0
275 274 0
-275 -274 0
276 -271 0
276 -275 0
-276 271 275 0
-278 186 0
-278 268 0
278 -186 -268 0
279 -277 -278 0
279 277 278 0
-279 -277 278 0
-279 277 -278 0
280 279 0
-280 -279 0
281 -276 0
281 -280 0
-281 276 280 0
-283 196 0
-283 268 0
283 -196 -268 0
284 -282 -283 0
284 282 283 0
-284 -282 283 0
-284 282 -283 0
285 284 0
-285 -284 0
286 -281 0
286 -285 0
-286 281 285 0
-288 206 0
-288 268 0
288 -206 -268 0
289 -287 -288 0
289 287 288 0
-289 -287 288 0
-289 287 -288 0
290 289 0
-290 -289 0
291 -286 0
291 -290 0
-291 286 290 0
-293 206 0
-293 240 0
293 -206 -240 0
294 -292 -293 0
294 292 293 0
-294 -292 293 0
-294 292 -293 0
295 294 0
-295 -294 0
296 -291 0
296 -295 0
-296 291 295 0
298 -297 -268 0
298 297 268 0
-298 -297 268 0
-298 297 -268 0
299 298 0
-299 -298 0
300 -296 0
300 -299 0
-300 296 299 0
302 -301 -154 0
302 301 154 0
-302 -301 154 0
-302 301 -154 0
303 302 0
-303 -302 0
304 -300 0
304 -303 0
-304 300 303 0
-306 150 0
-306 305 0
306 -150 -305 0
-307 306 0
-307 181 0
307 -306 -181 0
-309 150 0
-309 308 0
309 -150 -308 0
-310 309 0
-310 191 0
310 -309 -191 0
311 -307 0
311 -310 0
-311 307 310 0
-313 150 0
-313 312 0
313 -150 -312 0
-314 313 0
-314 201 0
314 -313 -201 0
-316 150 0
-316 315 0
316 -150 -315 0
-317 316 0
-317 210 0
317 -316 -210 0
318 -314 0
318 -317 0
-318 314 317 0
319 -311 0
319 -318 0
-319 311 318 0
-321 150 0
-321 320 0
321 -150 -320 0
-322 321 0
-322 220 0
322 -321 -220 0
-324 150 0
-324 323 0
324 -150 -323 0
-325 324 0
-325 225 0
325 -324 -225 0
326 -322 0
326 -325 0
-326 322 325 0
-328 150 0
-328 327 0
328 -150 -327 0
-329 328 0
-329 230 0
329 -328 -230 0
-331 150 0
-331 330 0
331 -150 -330 0
-332 331 0
-332 235 0
332 -331 -235 0
333 -329 0
333 -332 0
-333 329 332 0
334 -326 0
334 -333 0
-334 326 333 0
335 -319 0
335 -334 0
-335 319 334 0
-337 150 0
-337 336 0
337 -150 -336 0
-338 337 0
-338 245 0
338 -337 -245 0
-340 150 0
-340 339 0
340 -150 -339 0
-341 340 0
-341 250 0
341 -340 -250 0
342 -338 0
342 -341 0
-342 338 341 0
-344 150 0
-344 343 0
344 -150 -343 0
-345 344 0
-345 255 0
345 -344 -255 0
347 -345 0
347 -346 0
-347 345 346 0
348 -342 0
348 -347 0
-348 342 347 0
-350 150 0
-350 349 0
350 -150 -349 0
-351 350 0
-351 272 0
351 -350 -272 0
-353 150 0
-353 352 0
353 -150 -352 0
-354 353 0
-354 277 0
354 -353 -277 0
355 -351 0
355 -354 0
-355 351 354 0
-357 150 0
-357 356 0
357 -150 -356 0
-358 357 0
-358 282 0
358 -357 -282 0
-360 150 0
-360 359 0
360 -150 -359 0
-361 360 0
-361 287 0
361 -360 -287 0
362 -358 0
362 -361 0
-362 358 361 0
363 -355 0
363 -362 0
-363 355 362 0
364 -348 0
364 -363 0
-364 348 363 0
365 -335 0
365 -364 0
-365 335 364 0
-367 2 0
-367 366 0
367 -2 -366 0
-368 367 0
-368 181 0
368 -367 -181 0
-370 2 0
-370 369 0
370 -2 -369 0
-371 370 0
-371 191 0
371 -370 -191 0
372 -368 0
372 -371 0
-372 368 371 0
-374 2 0
-374 373 0
374 -2 -373 0
-375 374 0
-375 201 0
375 -374 -201 0
-377 2 0
-377 376 0
377 -2 -376 0
-378 377 0
-378 210 0
378 -377 -210 0
379 -375 0
379 -378 0
-379 375 378 0
380 -372 0
380 -379 0
-380 372 379 0
-382 2 0
-382 381 0
382 -2 -381 0
-383 382 0
-383 220 0
383 -382 -220 0
-385 2 0
-385 384 0
385 -2 -384 0
-386 385 0
-386 225 0
386 -385 -225 0
387 -383 0
387 -386 0
-387 383 386 0
-389 2 0
-389 388 0
389 -2 -388 0
-390 389 0
-390 230 0
390 -389 -230 0
-392 391 0
-392 235 0
392 -391 -235 0
393 -390 0
393 -392 0
-393 390 392 0
394 -387 0
394 -393 0
-394 387 393 0
395 -380 0
395 -394 0
-395 380 394 0
-397 2 0
-397 396 0
397 -2 -396 0
-398 397 0
-398 245 0
398 -397 -245 0
-400 2 0
-400 399 0
400 -2 -399 0
-401 400 0
-401 250 0
401 -400 -250 0
402 -398 0
402 -401 0
-402 398 401 0
-404 2 0
-404 403 0
404 -2 -403 0
-405 404 0
-405 255 0
405 -404 -255 0
-407 2 0
-407 406 0
407 -2 -406 0
-408 407 0
-408 292 0
408 -407 -292 0
409 -405 0
409 -408 0
-409 405 408 0
410 -402 0
410 -409 0
-410 402 409 0
-412 2 0
-412 411 0
412 -2 -411 0
-413 412 0
-413 272 0
413 -412 -272 0
-415 2 0
-415 414 0
415 -2 -414 0
-416 415 0
-416 277 0
416 -415 -277 0
417 -413 0
417 -416 0
-417 413 416 0
-420 2 0
-420 419 0
420 -2 -419 0
-421 420 0
-421 287 0
421 -420 -287 0
422 -418 0
422 -421 0
-422 418 421 0
423 -417 0
423 -422 0
-423 417 422 0
424 -410 0
424 -423 0
-424 410 423 0
425 -395 0
425 -424 0
-425 395 424 0
426 -365 0
426 -425 0
-426 365 425 0
-427 1 0
-427 305 0
427 -1 -305 0
-428 427 0
-428 40 0
428 -427 -40 0
-429 1 0
-429 308 0
429 -1 -308 0
-430 429 0
-430 50 0
430 -429 -50 0
431 -428 0
431 -430 0
-431 428 430 0
-432 1 0
-432 312 0
432 -1 -312 0
-433 432 0
-433 60 0
433 -432 -60 0
-434 1 0
-434 315 0
434 -1 -315 0
-435 434 0
-435 70 0
435 -434 -70 0
436 -433 0
436 -435 0
-436 433 435 0
437 -431 0
437 -436 0
-437 431 436 0
-438 1 0
-438 320 0
438 -1 -320 0
-439 438 0
-439 80 0
439 -438 -80 0
-440 1 0
-440 323 0
440 -1 -323 0
-441 440 0
-441 85 0
441 -440 -85 0
442 -439 0
442 -441 0
-442 439 441 0
-443 1 0
-443 327 0
443 -1 -327 0
-444 443 0
-444 90 0
444 -443 -90 0
-445 1 0
-445 330 0
445 -1 -330 0
-446 445 0
-446 95 0
446 -445 -95 0
447 -444 0
447 -446 0
-447 444 446 0
448 -442 0
448 -447 0
-448 442 447 0
449 -437 0
449 -448 0
-449 437 448 0
-450 1 0
-450 336 0
450 -1 -336 0
-451 450 0
-451 105 0
451 -450 -105 0
-452 1 0
-452 339 0
452 -1 -339 0
-453 452 0
-453 110 0
453 -452 -110 0
454 -451 0
454 -453 0
-454 451 453 0
-455 1 0
-455 343 0
455 -1 -343 0
-456 455 0
-456 115 0
456 -455 -115 0
-458 1 0
-458 457 0
458 -1 -457 0
-459 458 0
-459 120 0
459 -458 -120 0
460 -456 0
460 -459 0
-460 456 459 0
461 -454 0
461 -460 0
-461 454 460 0
-462 1 0
-462 349 0
462 -1 -349 0
-463 462 0
-463 130 0
463 -462 -130 0
-464 1 0
-464 352 0
464 -1 -352 0
-465 464 0
-465 135 0
465 -464 -135 0
466 -463 0
466 -465 0
-466 463 465 0
-467 1 0
-467 356 0
467 -1 -356 0
-468 467 0
-468 140 0
468 -467 -140 0
-469 1 0
-469 359 0
469 -1 -359 0
-470 469 0
-470 145 0
470 -469 -145 0
471 -468 0
471 -470 0
-471 468 470 0
472 -466 0
472 -471 0
-472 466 471 0
473 -461 0
473 -472 0
-473 461 472 0
474 -449 0
474 -473 0
-474 449 473 0
-475 367 0
-475 40 0
475 -367 -40 0
-476 370 0
-476 50 0
476 -370 -50 0
477 -475 0
477 -476 0
-477 475 476 0
-478 374 0
-478 60 0
478 -374 -60 0
-479 377 0
-479 70 0
479 -377 -70 0
480 -478 0
480 -479 0
-480 478 479 0
481 -477 0
481 -480 0
-481 477 480 0
-482 382 0
-482 80 0
482 -382 -80 0
-483 385 0
-483 85 0
483 -385 -85 0
484 -482 0
484 -483 0
-484 482 483 0
-485 389 0
-485 90 0
485 -389 -90 0
-487 2 0
-487 486 0
487 -2 -486 0
-488 487 0
-488 95 0
488 -487 -95 0
489 -485 0
489 -488 0
-489 485 488 0
490 -484 0
490 -489 0
-490 484 489 0
491 -481 0
491 -490 0
-491 481 490 0
-492 397 0
-492 105 0
492 -397 -105 0
-493 400 0
-493 110 0
493 -400 -110 0
494 -492 0
494 -493 0
-494 492 493 0
-495 404 0
-495 115 0
495 -404 -115 0
-496 407 0
-496 120 0
496 -407 -120 0
497 -495 0
497 -496 0
-497 495 496 0
498 -494 0
498 -497 0
-498 494 497 0
-499 412 0
-499 130 0
499 -412 -130 0
-500 415 0
-500 135 0
500 -415 -135 0
501 -499 0
501 -500 0
-501 499 500 0
-503 2 0
-503 502 0
503 -2 -502 0
-504 503 0
-504 140 0
504 -503 -140 0
-505 420 0
-505 145 0
505 -420 -145 0
506 -504 0
506 -505 0
-506 504 505 0
507 -501 0
507 -506 0
-507 501 506 0
508 -498 0
508 -507 0
-508 498 507 0
509 -491 0
509 -508 0
-509 491 508 0
510 -474 0
510 -509 0
-510 474 509 0
511 -426 -510 0
511 426 510 0
-511 -426 510 0
-511 426 -510 0
512 -304 0
512 -511 0
-512 304 511 0
512 0
